Error: Program solution is invalid
  (error message: w^TDw != 0)
------------------
Solution function:
------------------
solve_quadratic_program
--------
Program:
--------
NAME unsolved
ROWS
  N obj
  E c0
  E c1
  E c2
  E c3
  E c4
  E c5
  E c6
  E c7
  E c8
  E c9
  E c10
  E c11
  E c12
  E c13
  E c14
  E c15
  E c16
  E c17
  E c18
  E c19
  E c20
  E c21
  E c22
  E c23
  E c24
  E c25
  E c26
  E c27
  E c28
  E c29
  E c30
  E c31
  E c32
  E c33
  E c34
  E c35
  E c36
  E c37
  E c38
  E c39
COLUMNS
  x0  c8  64
  x1  c8  32
  x2  c8  16
  x3  c8  8
  x4  c8  4
  x5  c8  2
  x6  c0  1
  x6  c8  1
  x7  c9  64
  x8  c9  32
  x9  c9  16
  x10  c9  8
  x11  c9  4
  x12  c9  2
  x13  c1  1
  x13  c9  1
  x14  c10  64
  x15  c10  32
  x16  c10  16
  x17  c10  8
  x18  c10  4
  x19  c10  2
  x20  c2  1
  x20  c10  1
  x21  c11  64
  x22  c11  32
  x23  c11  16
  x24  c11  8
  x25  c11  4
  x26  c11  2
  x27  c3  1
  x27  c11  1
  x28  c12  64
  x28  c16  4096
  x29  c12  32
  x29  c16  1024
  x30  c12  16
  x30  c16  256
  x31  c12  8
  x31  c16  64
  x32  c12  4
  x32  c16  16
  x33  c12  2
  x33  c16  4
  x34  c12  1
  x34  c16  1
  x35  c13  64
  x35  c17  4096
  x36  c13  32
  x36  c17  1024
  x37  c13  16
  x37  c17  256
  x38  c13  8
  x38  c17  64
  x39  c13  4
  x39  c17  16
  x40  c13  2
  x40  c17  4
  x41  c13  1
  x41  c17  1
  x42  c14  64
  x42  c18  4096
  x43  c14  32
  x43  c18  1024
  x44  c14  16
  x44  c18  256
  x45  c14  8
  x45  c18  64
  x46  c14  4
  x46  c18  16
  x47  c14  2
  x47  c18  4
  x48  c14  1
  x48  c18  1
  x49  c15  64
  x49  c19  4096
  x50  c15  32
  x50  c19  1024
  x51  c15  16
  x51  c19  256
  x52  c15  8
  x52  c19  64
  x53  c15  4
  x53  c19  16
  x54  c15  2
  x54  c19  4
  x55  c15  1
  x55  c19  1
  x56  c20  4096
  x56  c24  46656
  x57  c20  1024
  x57  c24  7776
  x58  c20  256
  x58  c24  1296
  x59  c20  64
  x59  c24  216
  x60  c20  16
  x60  c24  36
  x61  c20  4
  x61  c24  6
  x62  c20  1
  x62  c24  1
  x63  c21  4096
  x63  c25  46656
  x64  c21  1024
  x64  c25  7776
  x65  c21  256
  x65  c25  1296
  x66  c21  64
  x66  c25  216
  x67  c21  16
  x67  c25  36
  x68  c21  4
  x68  c25  6
  x69  c21  1
  x69  c25  1
  x70  c22  4096
  x70  c26  46656
  x71  c22  1024
  x71  c26  7776
  x72  c22  256
  x72  c26  1296
  x73  c22  64
  x73  c26  216
  x74  c22  16
  x74  c26  36
  x75  c22  4
  x75  c26  6
  x76  c22  1
  x76  c26  1
  x77  c23  4096
  x77  c27  46656
  x78  c23  1024
  x78  c27  7776
  x79  c23  256
  x79  c27  1296
  x80  c23  64
  x80  c27  216
  x81  c23  16
  x81  c27  36
  x82  c23  4
  x82  c27  6
  x83  c23  1
  x83  c27  1
  x84  c28  46656
  x84  c32  262144
  x85  c28  7776
  x85  c32  32768
  x86  c28  1296
  x86  c32  4096
  x87  c28  216
  x87  c32  512
  x88  c28  36
  x88  c32  64
  x89  c28  6
  x89  c32  8
  x90  c28  1
  x90  c32  1
  x91  c29  46656
  x91  c33  262144
  x92  c29  7776
  x92  c33  32768
  x93  c29  1296
  x93  c33  4096
  x94  c29  216
  x94  c33  512
  x95  c29  36
  x95  c33  64
  x96  c29  6
  x96  c33  8
  x97  c29  1
  x97  c33  1
  x98  c30  46656
  x98  c34  262144
  x99  c30  7776
  x99  c34  32768
  x100  c30  1296
  x100  c34  4096
  x101  c30  216
  x101  c34  512
  x102  c30  36
  x102  c34  64
  x103  c30  6
  x103  c34  8
  x104  c30  1
  x104  c34  1
  x105  c31  46656
  x105  c35  262144
  x106  c31  7776
  x106  c35  32768
  x107  c31  1296
  x107  c35  4096
  x108  c31  216
  x108  c35  512
  x109  c31  36
  x109  c35  64
  x110  c31  6
  x110  c35  8
  x111  c31  1
  x111  c35  1
  x112  c4  1e+06
  x112  c36  262144
  x113  c4  100000
  x113  c36  32768
  x114  c4  10000
  x114  c36  4096
  x115  c4  1000
  x115  c36  512
  x116  c4  100
  x116  c36  64
  x117  c4  10
  x117  c36  8
  x118  c4  1
  x118  c36  1
  x119  c5  1e+06
  x119  c37  262144
  x120  c5  100000
  x120  c37  32768
  x121  c5  10000
  x121  c37  4096
  x122  c5  1000
  x122  c37  512
  x123  c5  100
  x123  c37  64
  x124  c5  10
  x124  c37  8
  x125  c5  1
  x125  c37  1
  x126  c6  1e+06
  x126  c38  262144
  x127  c6  100000
  x127  c38  32768
  x128  c6  10000
  x128  c38  4096
  x129  c6  1000
  x129  c38  512
  x130  c6  100
  x130  c38  64
  x131  c6  10
  x131  c38  8
  x132  c6  1
  x132  c38  1
  x133  c7  1e+06
  x133  c39  262144
  x134  c7  100000
  x134  c39  32768
  x135  c7  10000
  x135  c39  4096
  x136  c7  1000
  x136  c39  512
  x137  c7  100
  x137  c39  64
  x138  c7  10
  x138  c39  8
  x139  c7  1
  x139  c39  1
RHS
  rhs c8  2
  rhs c9  3
  rhs c10  5
  rhs c11  1
  rhs c12  2
  rhs c13  3
  rhs c14  5
  rhs c15  1
  rhs c16  1
  rhs c17  2
  rhs c18  3
  rhs c19  4
  rhs c20  1
  rhs c21  2
  rhs c22  3
  rhs c23  4
  rhs c24  1
  rhs c25  4
  rhs c26  2
  rhs c27  4
  rhs c28  1
  rhs c29  4
  rhs c30  2
  rhs c31  4
  rhs c32  7
  rhs c33  3
  rhs c34  2
  rhs c35  1
  rhs c36  7
  rhs c37  3
  rhs c38  2
  rhs c39  1
BOUNDS
  MI  BND  x0
  MI  BND  x1
  MI  BND  x2
  MI  BND  x3
  MI  BND  x4
  MI  BND  x5
  MI  BND  x6
  MI  BND  x7
  MI  BND  x8
  MI  BND  x9
  MI  BND  x10
  MI  BND  x11
  MI  BND  x12
  MI  BND  x13
  MI  BND  x14
  MI  BND  x15
  MI  BND  x16
  MI  BND  x17
  MI  BND  x18
  MI  BND  x19
  MI  BND  x20
  MI  BND  x21
  MI  BND  x22
  MI  BND  x23
  MI  BND  x24
  MI  BND  x25
  MI  BND  x26
  MI  BND  x27
  MI  BND  x28
  MI  BND  x29
  MI  BND  x30
  MI  BND  x31
  MI  BND  x32
  MI  BND  x33
  MI  BND  x34
  MI  BND  x35
  MI  BND  x36
  MI  BND  x37
  MI  BND  x38
  MI  BND  x39
  MI  BND  x40
  MI  BND  x41
  MI  BND  x42
  MI  BND  x43
  MI  BND  x44
  MI  BND  x45
  MI  BND  x46
  MI  BND  x47
  MI  BND  x48
  MI  BND  x49
  MI  BND  x50
  MI  BND  x51
  MI  BND  x52
  MI  BND  x53
  MI  BND  x54
  MI  BND  x55
  MI  BND  x56
  MI  BND  x57
  MI  BND  x58
  MI  BND  x59
  MI  BND  x60
  MI  BND  x61
  MI  BND  x62
  MI  BND  x63
  MI  BND  x64
  MI  BND  x65
  MI  BND  x66
  MI  BND  x67
  MI  BND  x68
  MI  BND  x69
  MI  BND  x70
  MI  BND  x71
  MI  BND  x72
  MI  BND  x73
  MI  BND  x74
  MI  BND  x75
  MI  BND  x76
  MI  BND  x77
  MI  BND  x78
  MI  BND  x79
  MI  BND  x80
  MI  BND  x81
  MI  BND  x82
  MI  BND  x83
  MI  BND  x84
  MI  BND  x85
  MI  BND  x86
  MI  BND  x87
  MI  BND  x88
  MI  BND  x89
  MI  BND  x90
  MI  BND  x91
  MI  BND  x92
  MI  BND  x93
  MI  BND  x94
  MI  BND  x95
  MI  BND  x96
  MI  BND  x97
  MI  BND  x98
  MI  BND  x99
  MI  BND  x100
  MI  BND  x101
  MI  BND  x102
  MI  BND  x103
  MI  BND  x104
  MI  BND  x105
  MI  BND  x106
  MI  BND  x107
  MI  BND  x108
  MI  BND  x109
  MI  BND  x110
  MI  BND  x111
  MI  BND  x112
  MI  BND  x113
  MI  BND  x114
  MI  BND  x115
  MI  BND  x116
  MI  BND  x117
  MI  BND  x118
  MI  BND  x119
  MI  BND  x120
  MI  BND  x121
  MI  BND  x122
  MI  BND  x123
  MI  BND  x124
  MI  BND  x125
  MI  BND  x126
  MI  BND  x127
  MI  BND  x128
  MI  BND  x129
  MI  BND  x130
  MI  BND  x131
  MI  BND  x132
  MI  BND  x133
  MI  BND  x134
  MI  BND  x135
  MI  BND  x136
  MI  BND  x137
  MI  BND  x138
  MI  BND  x139
QMATRIX
  x0  x0  1.65888e+06
  x1  x0  345600
  x0  x1  345600
  x1  x1  76800
  x2  x0  46080
  x0  x2  46080
  x2  x1  11520
  x1  x2  11520
  x2  x2  2304
  x7  x7  1.65888e+06
  x8  x7  345600
  x7  x8  345600
  x8  x8  76800
  x9  x7  46080
  x7  x9  46080
  x9  x8  11520
  x8  x9  11520
  x9  x9  2304
  x14  x14  1.65888e+06
  x15  x14  345600
  x14  x15  345600
  x15  x15  76800
  x16  x14  46080
  x14  x16  46080
  x16  x15  11520
  x15  x16  11520
  x16  x16  2304
  x21  x21  102400
  x22  x21  38400
  x21  x22  38400
  x22  x22  14628.6
  x23  x21  13056
  x21  x23  13056
  x23  x22  5120
  x22  x23  5120
  x23  x23  1843.2
  x24  x21  3840
  x21  x24  3840
  x24  x22  1536
  x22  x24  1536
  x24  x23  576
  x23  x24  576
  x24  x24  192
  x25  x21  768
  x21  x25  768
  x25  x22  320
  x22  x25  320
  x25  x23  128
  x23  x25  128
  x25  x24  48
  x24  x25  48
  x25  x25  16
  x28  x28  5.14253e+07
  x29  x28  5.184e+06
  x28  x29  5.184e+06
  x29  x29  537600
  x30  x28  322560
  x28  x30  322560
  x30  x29  34560
  x29  x30  34560
  x30  x30  2304
  x35  x35  5.14253e+07
  x36  x35  5.184e+06
  x35  x36  5.184e+06
  x36  x36  537600
  x37  x35  322560
  x35  x37  322560
  x37  x36  34560
  x36  x37  34560
  x37  x37  2304
  x42  x42  5.14253e+07
  x43  x42  5.184e+06
  x42  x43  5.184e+06
  x43  x43  537600
  x44  x42  322560
  x42  x44  322560
  x44  x43  34560
  x43  x44  34560
  x44  x44  2304
  x49  x49  5.23264e+07
  x50  x49  9.792e+06
  x49  x50  9.792e+06
  x50  x50  1.85783e+06
  x51  x49  1.65811e+06
  x49  x51  1.65811e+06
  x51  x50  322560
  x50  x51  322560
  x51  x51  57139.2
  x52  x49  241920
  x49  x52  241920
  x52  x50  47616
  x50  x52  47616
  x52  x51  8640
  x51  x52  8640
  x52  x52  1344
  x53  x49  23808
  x49  x53  23808
  x53  x50  4800
  x50  x53  4800
  x53  x51  896
  x51  x53  896
  x53  x52  144
  x52  x53  144
  x53  x53  16
  x56  x56  3.50024e+08
  x57  x56  2.2464e+07
  x56  x57  2.2464e+07
  x57  x57  1.4592e+06
  x58  x56  875520
  x56  x58  875520
  x58  x57  57600
  x57  x58  57600
  x58  x58  2304
  x63  x63  3.50024e+08
  x64  x63  2.2464e+07
  x63  x64  2.2464e+07
  x64  x64  1.4592e+06
  x65  x63  875520
  x63  x65  875520
  x65  x64  57600
  x64  x65  57600
  x65  x65  2304
  x70  x70  3.50024e+08
  x71  x70  2.2464e+07
  x70  x71  2.2464e+07
  x71  x71  1.4592e+06
  x72  x70  875520
  x70  x72  875520
  x72  x71  57600
  x71  x72  57600
  x72  x72  2304
  x77  x77  1.96311e+09
  x78  x77  2.42112e+08
  x77  x78  2.42112e+08
  x78  x78  3.01202e+07
  x79  x77  2.68823e+07
  x77  x79  2.68823e+07
  x79  x78  3.4048e+06
  x78  x79  3.4048e+06
  x79  x79  388915
  x80  x77  2.5536e+06
  x77  x80  2.5536e+06
  x80  x78  324096
  x78  x80  324096
  x80  x79  37440
  x79  x80  37440
  x80  x80  3648
  x81  x77  162048
  x77  x81  162048
  x81  x78  20800
  x78  x81  20800
  x81  x79  2432
  x79  x81  2432
  x81  x80  240
  x80  x81  240
  x81  x81  16
  x84  x84  1.29559e+09
  x85  x84  6.048e+07
  x84  x85  6.048e+07
  x85  x85  2.8416e+06
  x86  x84  1.70496e+06
  x84  x86  1.70496e+06
  x86  x85  80640
  x85  x86  80640
  x86  x86  2304
  x91  x91  1.29559e+09
  x92  x91  6.048e+07
  x91  x92  6.048e+07
  x92  x92  2.8416e+06
  x93  x91  1.70496e+06
  x91  x93  1.70496e+06
  x93  x92  80640
  x92  x93  80640
  x93  x93  2304
  x98  x98  1.29559e+09
  x99  x98  6.048e+07
  x98  x99  6.048e+07
  x99  x99  2.8416e+06
  x100  x98  1.70496e+06
  x98  x100  1.70496e+06
  x100  x99  80640
  x99  x100  80640
  x100  x100  2304
  x105  x105  2.4828e+10
  x106  x105  2.26464e+09
  x105  x106  2.26464e+09
  x106  x106  2.07682e+08
  x107  x105  1.85356e+08
  x105  x107  1.85356e+08
  x107  x106  1.7239e+07
  x106  x107  1.7239e+07
  x107  x107  1.43954e+06
  x108  x105  1.29293e+07
  x105  x108  1.29293e+07
  x108  x106  1.19962e+06
  x106  x108  1.19962e+06
  x108  x107  100800
  x107  x108  100800
  x108  x108  7104
  x109  x105  599808
  x105  x109  599808
  x109  x106  56000
  x106  x109  56000
  x109  x107  4736
  x107  x109  4736
  x109  x108  336
  x108  x109  336
  x109  x109  16
  x112  x112  3.48531e+09
  x113  x112  1.27526e+08
  x112  x113  1.27526e+08
  x113  x113  4.6848e+06
  x114  x112  2.81088e+06
  x112  x114  2.81088e+06
  x114  x113  103680
  x113  x114  103680
  x114  x114  2304
  x119  x119  3.48531e+09
  x120  x119  1.27526e+08
  x119  x120  1.27526e+08
  x120  x120  4.6848e+06
  x121  x119  2.81088e+06
  x119  x121  2.81088e+06
  x121  x120  103680
  x120  x121  103680
  x121  x121  2304
  x126  x126  3.48531e+09
  x127  x126  1.27526e+08
  x126  x127  1.27526e+08
  x127  x127  4.6848e+06
  x128  x126  2.81088e+06
  x126  x128  2.81088e+06
  x128  x127  103680
  x127  x128  103680
  x128  x128  2304
  x133  x133  1.73156e+11
  x134  x133  1.24834e+10
  x133  x134  1.24834e+10
  x134  x134  9.03183e+08
  x135  x133  8.0609e+08
  x133  x135  8.0609e+08
  x135  x134  5.90285e+07
  x134  x135  5.90285e+07
  x135  x135  3.87256e+06
  x136  x133  4.42714e+07
  x133  x136  4.42714e+07
  x136  x134  3.22714e+06
  x134  x136  3.22714e+06
  x136  x135  212544
  x135  x136  212544
  x136  x136  11712
  x137  x133  1.61357e+06
  x133  x137  1.61357e+06
  x137  x134  118080
  x134  x137  118080
  x137  x135  7808
  x135  x137  7808
  x137  x136  432
  x136  x137  432
  x137  x137  16
ENDATA
--------
Options:
--------
   Verbosity:        1
   Pricing strategy: QP_BLAND
   Auto-validation:  1

